Solving original (integer) problem with strategy gdp.bigm...
--- Job model.gms Start 02/15/26 22:30:36 52.2.0 d8e408be LEX-LEG x86 64bit/Linux
--- Applying:
    /package/gams/52.2/gmsprmun.txt
--- GAMS Parameters defined
    Input /local/scratch/a/sgusev/repos/k_means/data/gams_scip_gdp.bigm/no_mode/2026-02-15_22-30-35/original/model.gms
    Output /local/scratch/a/sgusev/repos/k_means/data/gams_scip_gdp.bigm/no_mode/2026-02-15_22-30-35/original/output.lst
    ScrDir /local/scratch/a/sgusev/repos/k_means/data/gams_scip_gdp.bigm/no_mode/2026-02-15_22-30-35/original/225a/
    SysDir /package/gams/52.2/
    CurDir /local/scratch/a/sgusev/repos/k_means/data/gams_scip_gdp.bigm/no_mode/2026-02-15_22-30-35/original/
    LogOption 3
    AppendLog 1
Licensee: David Bernal / SECQUOIA Research Group         G251008+0003Ac-GEN
          Purdue University, Davidson School of Chemical EngineeringDCE4838
          225a/gamslice.dat
          5a82958a-fbca-4a23
          node:66820903 mem:995 cores:48 ipport:44383 v:2                  
          Evaluation license: Not for commercial or production use
          The time-limited license stops working on : Jun 30, 2027
System information: 48 physical cores and 995 Gb physical memory detected
GAMS 52.2.0   Copyright (C) 1987-2025 GAMS Development. All rights reserved
--- Starting compilation
--- model.gms(249) 2 Mb
--- $echo File /local/scratch/a/sgusev/repos/k_means/data/gams_scip_gdp.bigm/no_mode/2026-02-15_22-30-35/original/scip.opt
--- model.gms(443) 2 Mb
--- Starting execution: elapsed 0:00:00.006
--- model.gms(259) 3 Mb
--- Generating MINLP model GAMS_MODEL
--- model.gms(263) 5 Mb
---   59 rows  68 columns  282 non-zeroes
---   572 nl-code  132 nl-non-zeroes
---   44 discrete-columns
--- Range statistics (absolute non-zero finite values)
--- RHS       [min, max] : [ 1.000E+00, 1.017E+01] - Zero values observed as well
--- Bound     [min, max] : [ 1.000E+00, 6.600E+01] - Zero values observed as well
--- Matrix    [min, max] : [ 4.680E-03, 1.017E+01]
--- model.gms(263) 3 Mb
--- Executing SCIP (Solvelink=5): elapsed 0:00:00.009

SCIP             52.2.0 d8e408be Dec 8, 2025           LEG x86 64bit/Linux    
SCIP version 9.2.4 (a94f778ac8)
Copyright (c) 2002-2025 Zuse Institute Berlin (ZIB)

External libraries: 
  CPLEX 22.1.2.0       Linear Programming Solver developed by IBM (www.cplex.com)
  CppAD 20180000.0     Algorithmic Differentiation of C++ algorithms developed by B. Bell (github.com/coin-or/CppAD)
  PaPILO 2.4.4         parallel presolve for integer and linear optimization (github.com/scipopt/papilo) (built with TBB) [GitHash: 7c826d50]
  Nauty 2.8.9          Computing Graph Automorphism Groups by Brendan D. McKay (users.cecs.anu.edu.au/~bdm/nauty)
  sassy 1.1            Symmetry preprocessor by Markus Anders (github.com/markusa4/sassy)
  Ipopt 3.14.19        Interior Point Optimizer developed by A. Waechter et.al. (github.com/coin-or/Ipopt)

reading option file /local/scratch/a/sgusev/repos/k_means/data/gams_scip_gdp.bigm/no_mode/2026-02-15_22-30-35/original/scip.opt
non-default parameter settings:
limits/time = 300
limits/gap = 1e-06
limits/absgap = 1e-10
lp/threads = 1
misc/printreason = FALSE
numerics/dualfeastol = 1e-06
parallel/maxnthreads = 1
nlpi/ipopt/linear_solver = "ma27"
nlpi/ipopt/linear_system_scaling = "mc19"

original problem has 67 variables (44 bin, 0 int, 23 cont) and 58 constraints

all 1 solutions given by solution candidate storage are infeasible

presolving:
(round 1, exhaustive) 0 del vars, 0 del conss, 0 add conss, 0 chg bounds, 0 chg sides, 0 chg coeffs, 11 upgd conss, 0 impls, 11 clqs
   (0.0s) probing cycle finished: starting next cycle
   (0.0s) symmetry computation started: requiring (bin +, int +, cont +), (fixed: bin -, int -, cont -)
   (0.0s) no symmetry present (symcode time: 0.00)
presolving (2 rounds: 2 fast, 2 medium, 2 exhaustive):
 0 deleted vars, 0 deleted constraints, 0 added constraints, 0 tightened bounds, 0 added holes, 0 changed sides, 0 changed coefficients
 0 implications, 11 cliques
presolved problem has 67 variables (44 bin, 0 int, 0 impl, 23 cont) and 58 constraints
     11 constraints of type <setppc>
      3 constraints of type <linear>
     44 constraints of type <nonlinear>
Presolving Time: 0.01

 time | node  | left  |LP iter|LP it/n|mem/heur|mdpt |vars |cons |rows |cuts |sepa|confs|strbr|  dualbound   | primalbound  |  gap   | compl. 
t 0.0s|     1 |     0 |    36 |     - |  trysol|   0 | 123 |  58 |  82 |   0 |  0 |   0 |   0 | 0.000000e+00 | 1.005124e+01 |    Inf | unknown
  0.0s|     1 |     0 |    84 |     - |  2291k |   0 | 123 |  58 |  82 |   0 |  0 |   0 |   0 | 0.000000e+00 | 1.005124e+01 |    Inf | unknown
  0.1s|     1 |     0 |    99 |     - |  2481k |   0 | 123 |  58 |  91 |   9 |  1 |   0 |   0 | 0.000000e+00 | 1.005124e+01 |    Inf | unknown
  0.1s|     1 |     0 |   116 |     - |  2557k |   0 | 123 |  58 | 101 |  19 |  2 |   0 |   0 | 0.000000e+00 | 1.005124e+01 |    Inf | unknown
r 0.1s|     1 |     0 |   116 |     - |shifting|   0 | 123 |  58 | 101 |  19 |  2 |   0 |   0 | 0.000000e+00 | 7.865577e+00 |    Inf | unknown
  0.1s|     1 |     0 |   135 |     - |  2887k |   0 | 123 |  58 | 112 |  30 |  3 |   0 |   0 | 0.000000e+00 | 7.865577e+00 |    Inf | unknown
  0.1s|     1 |     0 |   135 |     - |  2910k |   0 | 123 |  58 | 112 |  30 |  3 |   0 |   0 | 0.000000e+00 | 7.865577e+00 |    Inf | unknown
  0.1s|     1 |     0 |   152 |     - |  2999k |   0 | 123 |  58 | 123 |  41 |  4 |   0 |   0 | 0.000000e+00 | 7.865577e+00 |    Inf | unknown
  0.1s|     1 |     0 |   169 |     - |  3137k |   0 | 123 |  58 | 131 |  49 |  5 |   0 |   0 | 0.000000e+00 | 7.865577e+00 |    Inf | unknown
  0.1s|     1 |     0 |   190 |     - |  3206k |   0 | 123 |  58 | 138 |  56 |  6 |   0 |   0 | 0.000000e+00 | 7.865577e+00 |    Inf | unknown
  0.1s|     1 |     0 |   205 |     - |  3278k |   0 | 123 |  58 | 146 |  64 |  7 |   0 |   0 | 0.000000e+00 | 7.865577e+00 |    Inf | unknown
  0.1s|     1 |     0 |   213 |     - |  3539k |   0 | 123 |  58 | 153 |  71 |  8 |   0 |   0 | 0.000000e+00 | 7.865577e+00 |    Inf | unknown
  0.1s|     1 |     0 |   227 |     - |  3836k |   0 | 123 |  58 | 159 |  77 |  9 |   0 |   0 | 0.000000e+00 | 7.865577e+00 |    Inf | unknown
  0.1s|     1 |     0 |   240 |     - |  3927k |   0 | 123 |  58 | 168 |  86 | 10 |   0 |   0 | 0.000000e+00 | 7.865577e+00 |    Inf | unknown
  0.1s|     1 |     0 |   251 |     - |  3947k |   0 | 123 |  58 | 177 |  95 | 11 |   0 |   0 | 0.000000e+00 | 7.865577e+00 |    Inf | unknown
 time | node  | left  |LP iter|LP it/n|mem/heur|mdpt |vars |cons |rows |cuts |sepa|confs|strbr|  dualbound   | primalbound  |  gap   | compl. 
  0.3s|     1 |     0 |   373 |     - |  4048k |   0 | 123 |  58 | 177 |  95 | 11 |   0 |   5 | 0.000000e+00 | 7.865577e+00 |    Inf | unknown
t 0.3s|     1 |     0 |   373 |     - |  trysol|   0 | 123 |  58 | 177 |  95 | 11 |   0 |   5 | 0.000000e+00 | 7.228659e+00 |    Inf | unknown
  0.3s|     1 |     0 |   383 |     - |  4066k |   0 | 123 |  58 | 184 | 102 | 12 |   0 |   5 | 0.000000e+00 | 7.228659e+00 |    Inf | unknown
  0.3s|     1 |     0 |   383 |     - |  4067k |   0 | 123 |  58 | 184 | 102 | 12 |   0 |   5 | 0.000000e+00 | 7.228659e+00 |    Inf | unknown
  0.4s|     1 |     0 |   389 |     - |  4067k |   0 | 123 |  58 | 188 | 106 | 13 |   0 |   5 | 0.000000e+00 | 7.228659e+00 |    Inf | unknown
  0.4s|     1 |     0 |   389 |     - |  4070k |   0 | 123 |  58 | 188 | 106 | 13 |   0 |  10 | 0.000000e+00 | 7.228659e+00 |    Inf | unknown
  0.4s|     1 |     0 |   401 |     - |  4120k |   0 | 123 |  58 | 194 | 112 | 14 |   0 |  10 | 0.000000e+00 | 7.228659e+00 |    Inf | unknown
  0.4s|     1 |     0 |   409 |     - |  4123k |   0 | 123 |  58 | 200 | 118 | 15 |   0 |  10 | 0.000000e+00 | 7.228659e+00 |    Inf | unknown
  0.4s|     1 |     0 |   409 |     - |  4125k |   0 | 123 |  58 | 200 | 118 | 15 |   0 |  15 | 0.000000e+00 | 7.228659e+00 |    Inf | unknown
  0.4s|     1 |     0 |   420 |     - |  4146k |   0 | 123 |  58 | 206 | 124 | 16 |   0 |  15 | 0.000000e+00 | 7.228659e+00 |    Inf | unknown
  0.4s|     1 |     0 |   423 |     - |  4148k |   0 | 123 |  58 |  98 | 127 | 17 |   0 |  15 | 0.000000e+00 | 7.228659e+00 |    Inf | unknown
  0.4s|     1 |     0 |   423 |     - |  4150k |   0 | 123 |  58 |  98 | 127 | 17 |   0 |  20 | 0.000000e+00 | 7.228659e+00 |    Inf | unknown
  0.4s|     1 |     0 |   427 |     - |  4160k |   0 | 123 |  58 | 102 | 131 | 18 |   0 |  20 | 0.000000e+00 | 7.228659e+00 |    Inf | unknown
  0.4s|     1 |     0 |   430 |     - |  4161k |   0 | 123 |  58 | 104 | 133 | 19 |   0 |  20 | 0.000000e+00 | 7.228659e+00 |    Inf | unknown
  0.4s|     1 |     0 |   430 |     - |  4162k |   0 | 123 |  58 | 104 | 133 | 19 |   0 |  22 | 0.000000e+00 | 7.228659e+00 |    Inf | unknown
 time | node  | left  |LP iter|LP it/n|mem/heur|mdpt |vars |cons |rows |cuts |sepa|confs|strbr|  dualbound   | primalbound  |  gap   | compl. 
  0.4s|     1 |     0 |   434 |     - |  4172k |   0 | 123 |  58 | 107 | 136 | 20 |   0 |  22 | 0.000000e+00 | 7.228659e+00 |    Inf | unknown
  0.4s|     1 |     0 |   436 |     - |  4174k |   0 | 123 |  58 | 111 | 140 | 21 |   0 |  22 | 0.000000e+00 | 7.228659e+00 |    Inf | unknown
  0.4s|     1 |     2 |   436 |     - |  4175k |   0 | 123 |  58 | 111 | 140 | 21 |   0 |  22 | 0.000000e+00 | 7.228659e+00 |    Inf | unknown
d 0.5s|    19 |    15 |  1256 |  54.3 |adaptive|  10 | 123 |  58 | 131 | 639 |  3 |   0 |  90 | 0.000000e+00 | 6.428494e+00 |    Inf | unknown
d 0.6s|    40 |    35 |  2144 |  47.8 |nlpdivin|  10 | 123 |  58 | 170 |   0 |  6 |   0 | 127 | 0.000000e+00 | 4.267791e+00 |    Inf |   0.29%
  0.7s|   100 |    95 |  5050 |  48.2 |  6115k |  11 | 123 |  58 | 133 |2759 |  3 |   0 | 197 | 0.000000e+00 | 4.267791e+00 |    Inf |   0.58%
t 0.9s|   170 |   163 |  8181 |  46.8 |  trysol|  19 | 123 |  58 |   0 |4456 |  0 |   3 | 199 | 0.000000e+00 | 4.243669e+00 |    Inf |   0.60%
d 1.0s|   187 |   177 | 10019 |  52.4 |nlpdivin|  19 | 123 |  58 | 235 |   0 | 13 |   3 | 200 | 0.000000e+00 | 2.974619e+00 |    Inf |   1.29%
  1.1s|   200 |   190 | 10833 |  53.0 |  7804k |  19 | 123 |  59 | 140 |5562 |  2 |   5 | 200 | 0.000000e+00 | 2.974619e+00 |    Inf |   1.41%
  1.6s|   300 |   284 | 18498 |  60.9 |  9980k |  19 | 123 |  69 | 170 |8486 |  8 |  45 | 203 | 0.000000e+00 | 2.974619e+00 |    Inf |   2.52%
t 2.0s|   374 |   342 | 23757 |  62.9 |  trysol|  21 | 123 |  77 |   0 |  10k|  0 |  63 | 208 | 0.000000e+00 | 2.948603e+00 |    Inf |   3.34%
  2.1s|   400 |   364 | 24838 |  61.6 |    11M |  21 | 123 |  78 | 189 |  11k|  7 |  67 | 211 | 0.000000e+00 | 2.948603e+00 |    Inf |   3.34%
t 2.3s|   482 |   428 | 30003 |  61.8 |  trysol|  21 | 123 |  86 | 228 |  14k|  2 |  96 | 224 | 0.000000e+00 | 2.947314e+00 |    Inf |   4.18%
  2.4s|   500 |   441 | 30946 |  61.5 |    12M |  22 | 123 |  89 | 147 |  14k|  2 |  99 | 226 | 0.000000e+00 | 2.947314e+00 |    Inf |   4.81%
L 2.9s|   597 |   503 | 38940 |  64.9 |    alns|  22 | 123 |  95 | 269 |  18k|  8 | 115 | 238 | 0.000000e+00 | 2.650641e+00 |    Inf |   6.65%
 time | node  | left  |LP iter|LP it/n|mem/heur|mdpt |vars |cons |rows |cuts |sepa|confs|strbr|  dualbound   | primalbound  |  gap   | compl. 
  2.9s|   600 |   504 | 39062 |  64.7 |    14M |  22 | 123 |  95 | 195 |  18k|  2 | 115 | 238 | 0.000000e+00 | 2.650641e+00 |    Inf |   6.76%
  3.3s|   700 |   568 | 45401 |  64.6 |    15M |  22 | 123 | 105 | 176 |  22k|  8 | 146 | 244 | 0.000000e+00 | 2.650641e+00 |    Inf |   7.93%
  3.9s|   800 |   632 | 53484 |  66.6 |    16M |  22 | 123 | 111 | 174 |  25k|  7 | 171 | 261 | 0.000000e+00 | 2.650641e+00 |    Inf |   9.20%
  4.1s|   900 |   678 | 57774 |  64.0 |    18M |  22 | 123 | 114 | 178 |  27k|  2 | 185 | 270 | 0.000000e+00 | 2.650641e+00 |    Inf |  10.11%
r 4.1s|   920 |   692 | 58680 |  63.5 |randroun|  22 | 123 |  87 | 184 |  28k|  5 | 189 | 271 | 0.000000e+00 | 2.649988e+00 |    Inf |  10.19%
  4.5s|  1000 |   738 | 63591 |  63.4 |    18M |  22 | 123 |  95 | 181 |  30k|  1 | 217 | 278 | 0.000000e+00 | 2.649988e+00 |    Inf |  11.44%
  4.8s|  1100 |   806 | 69423 |  62.9 |    19M |  22 | 123 | 104 | 267 |  33k|  6 | 241 | 289 | 0.000000e+00 | 2.649988e+00 |    Inf |  12.08%
  5.0s|  1200 |   850 | 74185 |  61.6 |    19M |  22 | 123 | 113 | 179 |  35k|  0 | 270 | 291 | 0.000000e+00 | 2.649988e+00 |    Inf |  13.75%
  5.2s|  1300 |   908 | 79331 |  60.9 |    21M |  24 | 123 | 119 | 195 |  38k|  2 | 291 | 296 | 0.000000e+00 | 2.649988e+00 |    Inf |  14.69%
t 5.3s|  1330 |   893 | 81029 |  60.8 |  trysol|  24 | 123 | 119 |   0 |  38k|  0 | 297 | 297 | 0.000000e+00 | 2.559511e+00 |    Inf |  16.78%
  5.6s|  1400 |   925 | 85500 |  60.9 |    23M |  24 | 123 | 121 | 227 |  41k|  4 | 308 | 305 | 0.000000e+00 | 2.559511e+00 |    Inf |  17.95%
  5.9s|  1500 |   963 | 90279 |  60.0 |    24M |  24 | 123 | 132 | 260 |  43k| 15 | 328 | 315 | 0.000000e+00 | 2.559511e+00 |    Inf |  18.96%
  6.1s|  1600 |  1003 | 94625 |  59.0 |    24M |  24 | 123 | 141 | 218 |  45k|  2 | 349 | 325 | 0.000000e+00 | 2.559511e+00 |    Inf |  19.76%
  6.3s|  1700 |  1057 | 99683 |  58.5 |    25M |  24 | 123 | 144 | 281 |  48k|  7 | 366 | 332 | 0.000000e+00 | 2.559511e+00 |    Inf |  20.55%
  6.7s|  1800 |  1102 |104824 |  58.1 |    26M |  24 | 123 | 151 | 192 |  50k|  2 | 390 | 343 | 0.000000e+00 | 2.559511e+00 |    Inf |  21.68%
 time | node  | left  |LP iter|LP it/n|mem/heur|mdpt |vars |cons |rows |cuts |sepa|confs|strbr|  dualbound   | primalbound  |  gap   | compl. 
  6.9s|  1900 |  1156 |109926 |  57.7 |    27M |  24 | 123 | 157 | 215 |  53k|  1 | 416 | 348 | 1.018803e-03 | 2.559511e+00 |  Large |  21.99%
t 7.1s|  1977 |  1147 |113967 |  57.5 |  trysol|  24 | 123 | 164 |   0 |  55k|  0 | 439 | 355 | 2.593522e-02 | 2.477101e+00 |9451.11%|  22.96%
  7.1s|  2000 |  1156 |114718 |  57.2 |    28M |  24 | 123 | 166 | 249 |  55k|  1 | 443 | 355 | 2.596296e-02 | 2.477101e+00 |9440.90%|  23.26%
  7.4s|  2100 |  1202 |119849 |  57.0 |    29M |  27 | 123 | 173 | 190 |  58k|  0 | 457 | 364 | 5.526532e-02 | 2.477101e+00 |4382.20%|  23.69%
t 7.4s|  2112 |  1186 |120410 |  56.9 |  trysol|  27 | 123 | 133 | 238 |  58k|  3 | 457 | 364 | 5.526532e-02 | 2.451142e+00 |4335.23%|  23.81%
t 7.4s|  2112 |  1186 |120418 |  56.9 |  trysol|  27 | 123 | 133 | 245 |  58k|  4 | 457 | 364 | 5.526532e-02 | 2.450992e+00 |4334.95%|  23.81%
* 7.4s|  2114 |  1132 |120536 |  56.9 |    LP  |  27 | 123 | 133 | 256 |  58k|  8 | 457 | 364 | 5.526532e-02 | 2.383841e+00 |4213.45%|  24.54%
* 7.5s|  2173 |  1129 |122663 |  56.3 |    LP  |  27 | 123 | 102 | 275 |  59k|  8 | 468 | 367 | 5.602720e-02 | 2.349025e+00 |4092.65%|  25.28%
  7.6s|  2200 |  1130 |123869 |  56.2 |    29M |  27 | 123 | 109 | 220 |  60k|  6 | 476 | 369 | 5.602720e-02 | 2.349025e+00 |4092.65%|  25.80%
  7.9s|  2300 |  1166 |128747 |  55.9 |    30M |  27 | 123 | 111 | 241 |  62k|  7 | 497 | 375 | 6.040613e-02 | 2.349025e+00 |3788.72%|  26.87%
t 8.0s|  2369 |  1170 |131428 |  55.4 |  trysol|  27 | 123 | 104 | 222 |  64k|  2 | 508 | 383 | 1.034550e-01 | 2.319505e+00 |2142.04%|  27.50%
* 8.0s|  2377 |   980 |131585 |  55.3 |    LP  |  27 | 123 | 104 | 268 |  64k| 11 | 508 | 383 | 1.034550e-01 | 2.141271e+00 |1969.76%|  30.06%
  8.1s|  2400 |   983 |132330 |  55.0 |    30M |  27 | 123 | 104 | 224 |  64k|  0 | 511 | 383 | 1.311407e-01 | 2.141271e+00 |1532.80%|  30.54%
  8.4s|  2500 |  1021 |137586 |  54.9 |    30M |  27 | 123 | 114 | 213 |  67k|  7 | 539 | 389 | 1.674326e-01 | 2.141271e+00 |1178.89%|  31.91%
  8.6s|  2600 |  1033 |140910 |  54.1 |    30M |  27 | 123 | 119 | 217 |  68k|  2 | 559 | 396 | 1.674326e-01 | 2.141271e+00 |1178.89%|  33.33%
 time | node  | left  |LP iter|LP it/n|mem/heur|mdpt |vars |cons |rows |cuts |sepa|confs|strbr|  dualbound   | primalbound  |  gap   | compl. 
  8.8s|  2700 |  1063 |144506 |  53.4 |    31M |  27 | 123 | 118 | 206 |  70k|  1 | 570 | 401 | 1.958545e-01 | 2.141271e+00 | 993.30%|  34.22%
  8.9s|  2800 |  1090 |147282 |  52.5 |    31M |  27 | 123 | 117 | 227 |  72k|  0 | 586 | 411 | 2.560472e-01 | 2.141271e+00 | 736.28%|  34.53%
  9.2s|  2900 |  1103 |151443 |  52.1 |    33M |  27 | 123 | 121 | 194 |  74k|  0 | 619 | 418 | 2.763781e-01 | 2.141271e+00 | 674.76%|  35.57%
  9.4s|  3000 |  1113 |154699 |  51.5 |    33M |  27 | 123 | 120 | 212 |  75k|  0 | 637 | 425 | 3.145792e-01 | 2.141271e+00 | 580.68%|  36.51%
  9.5s|  3100 |  1119 |156842 |  50.5 |    34M |  27 | 123 | 122 | 204 |  76k|  8 | 655 | 429 | 3.242906e-01 | 2.141271e+00 | 560.29%|  37.67%
  9.7s|  3200 |  1147 |160341 |  50.0 |    34M |  27 | 123 | 127 | 162 |  78k|  2 | 682 | 437 | 4.175670e-01 | 2.141271e+00 | 412.80%|  38.22%
  9.9s|  3300 |  1157 |164252 |  49.7 |    34M |  27 | 123 | 128 | 208 |  80k|  0 | 705 | 444 | 4.447518e-01 | 2.141271e+00 | 381.45%|  39.38%
 10.1s|  3400 |  1175 |167696 |  49.3 |    34M |  27 | 123 | 146 | 361 |  82k|  2 | 742 | 450 | 4.514299e-01 | 2.141271e+00 | 374.33%|  40.47%
*10.1s|  3434 |  1171 |168651 |  49.0 |    LP  |  27 | 123 | 135 | 274 |  82k| 11 | 745 | 455 | 4.514299e-01 | 2.135770e+00 | 373.11%|  40.83%
 10.2s|  3500 |  1179 |171038 |  48.8 |    34M |  27 | 123 | 137 | 181 |  84k|  2 | 759 | 459 | 4.606236e-01 | 2.135770e+00 | 363.67%|  41.57%
 10.4s|  3600 |  1195 |173937 |  48.3 |    34M |  27 | 123 | 140 | 205 |  85k|  1 | 782 | 466 | 4.664111e-01 | 2.135770e+00 | 357.92%|  42.57%
 10.6s|  3700 |  1201 |176919 |  47.8 |    34M |  27 | 123 | 142 | 172 |  86k|  2 | 812 | 470 | 4.666098e-01 | 2.135770e+00 | 357.72%|  43.62%
 10.8s|  3800 |  1194 |179519 |  47.2 |    35M |  27 | 123 | 144 | 277 |  88k|  8 | 837 | 478 | 4.679323e-01 | 2.135770e+00 | 356.43%|  44.48%
 11.0s|  3900 |  1196 |182299 |  46.7 |    36M |  27 | 123 | 146 | 227 |  89k|  0 | 844 | 488 | 4.800728e-01 | 2.135770e+00 | 344.88%|  45.33%
 11.1s|  4000 |  1184 |184638 |  46.1 |    36M |  27 | 123 | 153 | 176 |  90k|  4 | 862 | 489 | 5.191639e-01 | 2.135770e+00 | 311.39%|  46.34%
 time | node  | left  |LP iter|LP it/n|mem/heur|mdpt |vars |cons |rows |cuts |sepa|confs|strbr|  dualbound   | primalbound  |  gap   | compl. 
 11.3s|  4100 |  1190 |187490 |  45.7 |    36M |  27 | 123 | 154 | 295 |  91k|  4 | 878 | 497 | 5.359208e-01 | 2.135770e+00 | 298.52%|  46.90%
 11.5s|  4200 |  1186 |190301 |  45.3 |    36M |  27 | 123 | 154 | 215 |  93k|  0 | 895 | 499 | 5.601281e-01 | 2.135770e+00 | 281.30%|  48.11%
 11.7s|  4300 |  1204 |193664 |  45.0 |    36M |  27 | 123 | 156 | 301 |  94k|  5 | 906 | 502 | 5.601281e-01 | 2.135770e+00 | 281.30%|  48.50%
 11.8s|  4400 |  1214 |196693 |  44.6 |    36M |  27 | 123 | 156 | 293 |  96k|  2 | 917 | 504 | 5.601281e-01 | 2.135770e+00 | 281.30%|  48.96%
 12.0s|  4500 |  1214 |199770 |  44.3 |    38M |  27 | 123 | 157 | 229 |  97k|  1 | 934 | 506 | 5.601281e-01 | 2.135770e+00 | 281.30%|  49.42%
 12.2s|  4600 |  1198 |202486 |  44.0 |    38M |  27 | 123 | 168 | 163 |  99k|  0 | 959 | 510 | 6.076936e-01 | 2.135770e+00 | 251.46%|  50.65%
 12.3s|  4700 |  1192 |205077 |  43.6 |    38M |  27 | 123 | 176 | 186 | 100k|  0 | 973 | 513 | 6.392401e-01 | 2.135770e+00 | 234.11%|  51.43%
 12.4s|  4800 |  1186 |207891 |  43.3 |    38M |  27 | 123 | 178 | 213 | 101k|  1 | 981 | 516 | 6.396059e-01 | 2.135770e+00 | 233.92%|  52.00%
 12.6s|  4900 |  1206 |211676 |  43.2 |    38M |  27 | 123 | 181 | 195 | 103k|  0 |1009 | 520 | 6.637709e-01 | 2.135770e+00 | 221.76%|  52.47%
 12.8s|  5000 |  1202 |213776 |  42.7 |    39M |  27 | 123 | 186 | 224 | 104k|  2 |1029 | 523 | 6.637712e-01 | 2.135770e+00 | 221.76%|  53.27%
 12.9s|  5100 |  1184 |216498 |  42.4 |    39M |  27 | 123 | 190 | 178 | 105k|  2 |1046 | 531 | 6.887571e-01 | 2.135770e+00 | 210.09%|  54.36%
 13.1s|  5200 |  1173 |218433 |  42.0 |    39M |  27 | 123 | 192 | 145 | 106k|  2 |1061 | 534 | 6.892319e-01 | 2.135770e+00 | 209.88%|  55.48%
 13.2s|  5300 |  1160 |220784 |  41.6 |    39M |  27 | 123 | 192 | 197 | 107k|  0 |1069 | 540 | 7.080334e-01 | 2.135770e+00 | 201.65%|  56.08%
 13.4s|  5400 |  1155 |223974 |  41.4 |    39M |  27 | 123 | 191 | 187 | 109k|  0 |1083 | 547 | 7.411790e-01 | 2.135770e+00 | 188.16%|  56.95%
 13.7s|  5500 |  1147 |227914 |  41.4 |    39M |  27 | 123 | 197 | 202 | 111k|  1 |1105 | 564 | 7.452057e-01 | 2.135770e+00 | 186.60%|  57.77%
 time | node  | left  |LP iter|LP it/n|mem/heur|mdpt |vars |cons |rows |cuts |sepa|confs|strbr|  dualbound   | primalbound  |  gap   | compl. 
 13.9s|  5600 |  1138 |230564 |  41.1 |    39M |  27 | 123 | 199 | 171 | 112k|  1 |1122 | 566 | 7.650431e-01 | 2.135770e+00 | 179.17%|  58.75%
 14.0s|  5700 |  1136 |233087 |  40.9 |    40M |  27 | 123 | 205 | 232 | 113k|  0 |1138 | 568 | 7.686035e-01 | 2.135770e+00 | 177.88%|  59.42%
 14.1s|  5800 |  1126 |235622 |  40.6 |    41M |  27 | 123 | 204 | 159 | 114k|  1 |1146 | 570 | 7.698417e-01 | 2.135770e+00 | 177.43%|  59.81%
 14.3s|  5900 |  1108 |238089 |  40.3 |    41M |  27 | 123 | 203 | 195 | 116k|  4 |1157 | 575 | 7.726990e-01 | 2.135770e+00 | 176.40%|  60.61%
 14.4s|  6000 |  1092 |240353 |  40.0 |    41M |  27 | 123 | 206 | 208 | 117k|  0 |1172 | 579 | 7.892561e-01 | 2.135770e+00 | 170.61%|  61.32%
 14.6s|  6100 |  1093 |242672 |  39.7 |    41M |  27 | 123 | 207 | 180 | 118k|  0 |1189 | 583 | 8.129448e-01 | 2.135770e+00 | 162.72%|  61.81%
 14.7s|  6200 |  1075 |244653 |  39.4 |    41M |  27 | 123 | 212 | 205 | 119k|  1 |1204 | 586 | 8.415572e-01 | 2.135770e+00 | 153.79%|  62.91%
 14.8s|  6300 |  1070 |246923 |  39.2 |    41M |  27 | 123 | 219 | 162 | 120k|  0 |1219 | 588 | 8.777433e-01 | 2.135770e+00 | 143.33%|  63.92%
 15.1s|  6400 |  1047 |249829 |  39.0 |    41M |  27 | 123 | 221 | 258 | 121k|  3 |1230 | 596 | 8.874739e-01 | 2.135770e+00 | 140.66%|  64.90%
 15.2s|  6500 |  1030 |251802 |  38.7 |    41M |  27 | 123 | 224 | 174 | 122k|  2 |1244 | 599 | 9.111211e-01 | 2.135770e+00 | 134.41%|  65.55%
 15.3s|  6600 |  1012 |254109 |  38.5 |    41M |  27 | 123 | 226 | 380 | 123k|  0 |1258 | 600 | 9.349623e-01 | 2.135770e+00 | 128.43%|  66.53%
 15.5s|  6700 |  1018 |256894 |  38.3 |    41M |  27 | 123 | 226 | 214 | 125k|  2 |1277 | 608 | 9.404387e-01 | 2.135770e+00 | 127.10%|  66.70%
 15.6s|  6800 |  1000 |259115 |  38.1 |    41M |  27 | 123 | 226 | 240 | 126k|  0 |1292 | 609 | 9.476831e-01 | 2.135770e+00 | 125.37%|  67.14%
 15.7s|  6900 |   978 |261555 |  37.9 |    41M |  27 | 123 | 233 | 202 | 127k|  0 |1308 | 610 | 9.808083e-01 | 2.135770e+00 | 117.76%|  68.00%
 15.8s|  7000 |   960 |263496 |  37.6 |    42M |  27 | 123 | 233 | 188 | 127k|  0 |1320 | 614 | 9.964773e-01 | 2.135770e+00 | 114.33%|  68.57%
 time | node  | left  |LP iter|LP it/n|mem/heur|mdpt |vars |cons |rows |cuts |sepa|confs|strbr|  dualbound   | primalbound  |  gap   | compl. 
 15.9s|  7100 |   942 |265942 |  37.4 |    42M |  27 | 123 | 232 | 183 | 129k|  2 |1335 | 615 | 1.031192e+00 | 2.135770e+00 | 107.12%|  69.37%
 16.1s|  7200 |   934 |268560 |  37.3 |    42M |  27 | 123 | 231 | 218 | 130k|  1 |1346 | 622 | 1.031216e+00 | 2.135770e+00 | 107.11%|  70.83%
 16.2s|  7300 |   893 |270509 |  37.0 |    42M |  27 | 123 | 241 | 215 | 131k|  2 |1369 | 624 | 1.048192e+00 | 2.135770e+00 | 103.76%|  71.98%
 16.4s|  7400 |   867 |272509 |  36.8 |    42M |  27 | 123 | 242 | 180 | 132k|  2 |1388 | 629 | 1.058752e+00 | 2.135770e+00 | 101.73%|  72.63%
 16.5s|  7500 |   857 |274409 |  36.6 |    42M |  27 | 123 | 248 | 244 | 132k|  0 |1401 | 633 | 1.058809e+00 | 2.135770e+00 | 101.71%|  72.98%
 16.6s|  7600 |   836 |276540 |  36.4 |    42M |  27 | 123 | 253 | 162 | 133k|  2 |1423 | 642 | 1.094678e+00 | 2.135770e+00 |  95.10%|  73.68%
 16.7s|  7700 |   816 |278478 |  36.1 |    42M |  27 | 123 | 264 | 211 | 134k|  1 |1447 | 643 | 1.128267e+00 | 2.135770e+00 |  89.30%|  74.50%
 16.8s|  7800 |   806 |281038 |  36.0 |    42M |  27 | 123 | 265 | 229 | 135k|  1 |1460 | 645 | 1.131364e+00 | 2.135770e+00 |  88.78%|  75.05%
 17.0s|  7900 |   802 |283307 |  35.8 |    42M |  27 | 123 | 265 | 232 | 136k|  2 |1476 | 650 | 1.131421e+00 | 2.135770e+00 |  88.77%|  75.40%
 17.1s|  8000 |   777 |285785 |  35.7 |    42M |  27 | 123 | 270 | 163 | 137k|  0 |1493 | 653 | 1.131434e+00 | 2.135770e+00 |  88.77%|  76.03%
 17.3s|  8100 |   758 |288094 |  35.5 |    42M |  27 | 123 | 270 | 178 | 138k|  1 |1511 | 659 | 1.131435e+00 | 2.135770e+00 |  88.77%|  76.65%
 17.4s|  8200 |   733 |290170 |  35.4 |    42M |  27 | 123 | 273 | 181 | 139k|  2 |1529 | 661 | 1.166187e+00 | 2.135770e+00 |  83.14%|  77.42%
 17.5s|  8300 |   725 |292249 |  35.2 |    42M |  27 | 123 | 282 | 170 | 140k|  0 |1546 | 666 | 1.170419e+00 | 2.135770e+00 |  82.48%|  77.64%
 17.6s|  8400 |   704 |293983 |  35.0 |    42M |  27 | 123 | 287 | 174 | 141k|  2 |1557 | 667 | 1.209502e+00 | 2.135770e+00 |  76.58%|  78.31%
 17.8s|  8500 |   668 |295949 |  34.8 |    42M |  27 | 123 | 298 | 207 | 142k|  2 |1581 | 670 | 1.215474e+00 | 2.135770e+00 |  75.72%|  79.09%
 time | node  | left  |LP iter|LP it/n|mem/heur|mdpt |vars |cons |rows |cuts |sepa|confs|strbr|  dualbound   | primalbound  |  gap   | compl. 
 17.9s|  8600 |   648 |297765 |  34.6 |    42M |  27 | 123 | 299 | 259 | 142k|  0 |1592 | 673 | 1.230606e+00 | 2.135770e+00 |  73.55%|  79.57%
 18.0s|  8700 |   628 |299810 |  34.4 |    42M |  27 | 123 | 301 | 155 | 143k|  0 |1611 | 676 | 1.234396e+00 | 2.135770e+00 |  73.02%|  80.36%
 18.1s|  8800 |   616 |302360 |  34.3 |    42M |  27 | 123 | 306 | 170 | 145k|  2 |1630 | 681 | 1.273919e+00 | 2.135770e+00 |  67.65%|  81.24%
 18.2s|  8900 |   586 |304285 |  34.2 |    42M |  27 | 123 | 314 | 187 | 145k|  0 |1653 | 689 | 1.278231e+00 | 2.135770e+00 |  67.09%|  82.23%
 18.4s|  9000 |   561 |306439 |  34.0 |    42M |  27 | 123 | 319 | 188 | 146k|  0 |1670 | 689 | 1.287575e+00 | 2.135770e+00 |  65.88%|  83.02%
 18.5s|  9100 |   530 |308507 |  33.9 |    43M |  27 | 123 | 325 | 506 | 147k|  1 |1692 | 690 | 1.291980e+00 | 2.135770e+00 |  65.31%|  83.83%
 18.6s|  9200 |   500 |310841 |  33.8 |    43M |  27 | 123 | 332 | 226 | 148k|  1 |1705 | 694 | 1.331361e+00 | 2.135770e+00 |  60.42%|  84.70%
 18.8s|  9300 |   475 |312830 |  33.6 |    43M |  27 | 123 | 339 | 435 | 149k|  0 |1721 | 695 | 1.362114e+00 | 2.135770e+00 |  56.80%|  85.66%
 18.9s|  9400 |   464 |315130 |  33.5 |    43M |  27 | 123 | 353 | 155 | 150k|  0 |1747 | 701 | 1.383467e+00 | 2.135770e+00 |  54.38%|  86.90%
 19.0s|  9500 |   442 |316853 |  33.3 |    43M |  27 | 123 | 362 | 200 | 151k|  2 |1767 | 704 | 1.402241e+00 | 2.135770e+00 |  52.31%|  88.07%
 19.1s|  9600 |   407 |318587 |  33.2 |    43M |  27 | 123 | 364 | 389 | 151k|  0 |1780 | 708 | 1.419195e+00 | 2.135770e+00 |  50.49%|  88.92%
 19.3s|  9700 |   371 |320655 |  33.0 |    43M |  27 | 123 | 371 | 195 | 152k|  2 |1804 | 709 | 1.428430e+00 | 2.135770e+00 |  49.52%|  89.78%
 19.4s|  9800 |   330 |322704 |  32.9 |    43M |  27 | 123 | 386 | 214 | 153k|  1 |1834 | 711 | 1.436736e+00 | 2.135770e+00 |  48.65%|  91.01%
 19.5s|  9900 |   295 |324781 |  32.8 |    43M |  27 | 123 | 400 | 194 | 154k|  0 |1864 | 715 | 1.436738e+00 | 2.135770e+00 |  48.65%|  92.27%
 19.6s| 10000 |   265 |326701 |  32.6 |    43M |  27 | 123 | 405 | 208 | 155k|  0 |1882 | 720 | 1.441121e+00 | 2.135770e+00 |  48.20%|  92.95%
 time | node  | left  |LP iter|LP it/n|mem/heur|mdpt |vars |cons |rows |cuts |sepa|confs|strbr|  dualbound   | primalbound  |  gap   | compl. 
 19.8s| 10100 |   235 |328696 |  32.5 |    43M |  27 | 123 | 410 | 232 | 156k|  1 |1903 | 724 | 1.465885e+00 | 2.135770e+00 |  45.70%|  93.67%
 19.9s| 10200 |   205 |330780 |  32.4 |    43M |  27 | 123 | 409 | 525 | 157k|  2 |1923 | 724 | 1.498089e+00 | 2.135770e+00 |  42.57%|  94.66%
 20.1s| 10300 |   166 |332948 |  32.3 |    43M |  27 | 123 | 415 | 205 | 157k|  4 |1943 | 728 | 1.523026e+00 | 2.135770e+00 |  40.23%|  95.87%
 20.2s| 10400 |   137 |335066 |  32.2 |    43M |  27 | 123 | 417 | 274 | 158k|  7 |1962 | 732 | 1.564927e+00 | 2.135770e+00 |  36.48%|  96.63%
 20.4s| 10500 |    91 |337233 |  32.1 |    43M |  27 | 123 | 412 | 185 | 159k|  0 |1975 | 737 | 1.605433e+00 | 2.135770e+00 |  33.03%|  97.75%
 20.5s| 10600 |    18 |339134 |  32.0 |    44M |  27 | 123 | 420 |1260 | 159k|  0 |1996 | 738 | 1.815150e+00 | 2.135770e+00 |  17.66%|  99.61%

SCIP Status        : problem is solved [optimal solution found]
Solving Time (sec) : 20.58
Solving Nodes      : 10622
Primal Bound       : +2.13577040063666e+00 (33 solutions)
Dual Bound         : +2.13577040063666e+00
Gap                : 0.00 %


--- Reading solution for model GAMS_MODEL
***
*** Solver did not provide marginals for model GAMS_MODEL
***
--- Executing after solve: elapsed 0:00:20.647
--- model.gms(266) 3 Mb
--- model.gms(443) 5 Mb
--- Putfile results /local/scratch/a/sgusev/repos/k_means/data/gams_scip_gdp.bigm/no_mode/2026-02-15_22-30-35/original/results.dat
--- Putfile statresults /local/scratch/a/sgusev/repos/k_means/data/gams_scip_gdp.bigm/no_mode/2026-02-15_22-30-35/original/resultsstat.dat
*** Status: Normal completion
--- Job model.gms Stop 02/15/26 22:30:56 elapsed 0:00:20.647
Original problem solved. Time taken: 21.216251373291016 seconds
Original objective value: 2.135770400636667
